c Random 4-CNF over 20 variables and 80 clauses
c Generated with `cnfgen`
c (C) 2012-2016 Massimo Lauria <lauria.massimo@gmail.com>
c https://massimolauria.github.io/cnfgen
c
c COMMAND LINE: cnfgen --output tmp-4-20-80.dimacs --output-format dimacs randkcnf 4 20 80
c
c sdimacs generated by gen-sdimacs
c
p cnf 20 80
e 11 12 13 14 15 16 17 18 19 20 0
r 0.37 1 2 3 4 5 6 7 8 9 10 0
1 8 -9 -11 0
8 10 -15 -19 0
3 -10 16 19 0
-7 16 -17 18 0
-8 -10 -13 19 0
10 -12 -16 -18 0
8 13 15 16 0
3 9 11 -17 0
-2 4 5 -14 0
-1 3 -16 -18 0
2 6 -7 9 0
2 -3 9 -10 0
-2 4 9 -17 0
-3 -9 -10 14 0
3 -9 -17 -19 0
4 7 16 -18 0
-1 7 10 19 0
-3 -9 -14 -17 0
2 7 12 -13 0
-9 15 16 -17 0
-6 12 -16 -19 0
-7 8 -11 -17 0
-2 -4 14 17 0
2 -11 14 18 0
5 10 12 -13 0
3 4 9 -14 0
2 13 -14 -15 0
3 -14 15 -20 0
2 12 14 16 0
-4 -10 12 20 0
-1 8 -15 -20 0
-2 -10 15 -19 0
-4 -6 9 14 0
9 13 14 -19 0
-1 -15 -19 -20 0
-1 5 9 13 0
5 -12 -15 -18 0
3 6 -17 -19 0
-6 12 -13 14 0
3 -12 -18 -20 0
1 -6 8 -18 0
-2 3 4 9 0
9 -14 -18 20 0
1 -2 -5 -14 0
6 -14 -16 18 0
-15 -16 17 -20 0
1 5 -13 19 0
1 3 -4 -16 0
11 17 19 -20 0
2 8 12 -19 0
1 4 13 20 0
2 -14 -15 16 0
-2 -3 4 -5 0
7 -11 -12 -16 0
10 11 12 18 0
4 7 -10 -13 0
-4 -7 13 19 0
-6 -7 -10 -18 0
6 -8 16 -20 0
2 8 16 -18 0
-4 -9 13 -15 0
-4 -11 13 -17 0
-4 -10 -15 -20 0
-3 15 -16 18 0
-9 10 -14 -19 0
-1 -5 12 -16 0
8 9 12 -14 0
-5 -6 7 9 0
-8 -10 -12 16 0
2 -3 -11 18 0
2 3 11 19 0
4 -8 -18 -19 0
3 -7 11 -18 0
7 -10 -12 17 0
1 -3 12 -13 0
5 12 15 -16 0
-2 17 -18 20 0
-3 6 -8 -15 0
4 5 17 18 0
12 -14 -17 -20 0
